p cnf 122 422
3 -1 0
3 -2 0
1 2 -3 0
-6 4 0
-6 -5 0
-4 5 6 0
6 7 -8 0
-6 -7 -8 0
6 -7 8 0
-6 7 8 0
-10 8 0
-10 -9 0
-8 9 10 0
12 10 0
12 11 0
-10 -11 -12 0
14 -13 0
14 -11 0
13 11 -14 0
-15 5 0
-15 -14 0
-5 14 15 0
16 -12 0
16 -15 0
12 15 -16 0
17 18 -19 0
-17 -18 -19 0
17 -18 19 0
-17 18 19 0
20 18 0
20 -17 0
-18 17 -20 0
-22 8 0
-22 21 0
-8 -21 22 0
23 20 0
23 -22 0
-20 22 -23 0
24 -19 0
24 23 0
19 -23 -24 0
-25 17 -26 0
25 -17 -26 0
-25 -17 26 0
25 17 26 0
-28 9 0
-28 -27 0
-9 27 28 0
-29 26 0
-29 -28 0
-26 28 29 0
-30 -4 0
-30 -29 0
4 29 30 0
-30 -12 -31 0
30 12 -31 0
-30 12 31 0
30 -12 31 0
32 -9 0
32 -13 0
9 13 -32 0
34 32 0
34 33 0
-32 -33 -34 0
-35 31 0
-35 -34 0
-31 34 35 0
-36 -24 0
-36 35 0
24 -35 36 0
10 -26 -37 0
-10 26 -37 0
10 26 37 0
-10 -26 37 0
37 7 -38 0
-37 -7 -38 0
37 -7 38 0
-37 7 38 0
-39 -36 0
-39 38 0
36 -38 39 0
40 18 0
40 25 0
-18 -25 -40 0
-41 -40 0
-41 28 0
40 -28 41 0
-42 -39 0
-42 -41 0
39 41 42 0
-16 -42 -43 0
16 42 -43 0
-16 42 43 0
16 -42 43 0
8 -14 -44 0
-8 14 -44 0
8 14 44 0
-8 -14 44 0
10 28 -45 0
-10 -28 -45 0
10 -28 45 0
-10 28 45 0
46 -45 0
46 26 0
45 -26 -46 0
47 44 0
47 46 0
-44 -46 -47 0
-47 25 -48 0
47 -25 -48 0
-47 -25 48 0
47 25 48 0
49 9 0
49 25 0
-9 -25 -49 0
50 48 0
50 -49 0
-48 49 -50 0
-26 12 -51 0
26 -12 -51 0
-26 -12 51 0
26 12 51 0
-52 -27 0
-52 7 0
27 -7 52 0
-53 44 0
-53 52 0
-44 -52 53 0
-54 -53 0
-54 -2 0
53 2 54 0
55 -54 0
55 -15 0
54 15 -55 0
-56 4 0
-56 -4 0
-20 -56 -57 0
20 56 -57 0
-20 56 57 0
20 -56 57 0
58 -55 0
58 57 0
55 -57 -58 0
-59 51 0
-59 58 0
-51 -58 59 0
50 59 -60 0
-50 -59 -60 0
50 -59 60 0
-50 59 60 0
-61 -38 0
-61 7 0
38 -7 61 0
-62 -60 0
-62 -61 0
60 61 62 0
63 -32 0
63 -21 0
32 21 -63 0
-2 63 -64 0
2 -63 -64 0
-2 -63 64 0
2 63 64 0
-65 62 0
-65 64 0
-62 -64 65 0
43 65 -66 0
-43 -65 -66 0
43 -65 66 0
-43 65 66 0
-67 2 0
-67 4 0
-2 -4 67 0
68 -19 0
68 67 0
19 -67 -68 0
-69 18 0
-69 68 0
-18 -68 69 0
-70 35 0
-70 -69 0
-35 69 70 0
-18 20 -71 0
18 -20 -71 0
-18 -20 71 0
18 20 71 0
72 71 0
72 -4 0
-71 4 -72 0
73 -70 0
73 72 0
70 -72 -73 0
74 6 0
74 28 0
-6 -28 -74 0
-74 30 -75 0
74 -30 -75 0
-74 -30 75 0
74 30 75 0
-76 -75 0
-76 10 0
75 -10 76 0
73 76 -77 0
-73 -76 -77 0
73 -76 77 0
-73 76 77 0
8 -5 -78 0
-8 5 -78 0
8 5 78 0
-8 -5 78 0
79 78 0
79 34 0
-78 -34 -79 0
80 -19 0
80 20 0
19 -20 -80 0
-81 24 0
-81 57 0
-24 -57 81 0
82 80 0
82 -81 0
-80 81 -82 0
-83 -26 0
-83 -36 0
26 36 83 0
-84 -82 0
-84 -83 0
82 83 84 0
-85 -79 0
-85 -84 0
79 84 85 0
86 -27 0
86 63 0
27 -63 -86 0
-87 -7 0
-87 67 0
7 -67 87 0
88 -25 0
88 -57 0
25 57 -88 0
89 -87 0
89 88 0
87 -88 -89 0
-90 -89 0
-90 -21 0
89 21 90 0
-86 90 -91 0
86 -90 -91 0
-86 -90 91 0
86 90 91 0
-92 -63 0
-92 -52 0
63 52 92 0
-93 -55 0
-93 92 0
55 -92 93 0
94 -40 0
94 -6 0
40 6 -94 0
95 -94 0
95 -56 0
94 56 -95 0
96 31 0
96 -29 0
-31 29 -96 0
-97 -95 0
-97 96 0
95 -96 97 0
98 -30 0
98 -22 0
30 22 -98 0
-97 -98 -99 0
97 98 -99 0
-97 98 99 0
97 -98 99 0
93 99 -100 0
-93 -99 -100 0
93 -99 100 0
-93 99 100 0
-101 -12 0
-101 27 0
12 -27 101 0
-102 46 0
-102 101 0
-46 -101 102 0
103 11 0
103 20 0
-11 -20 -103 0
-104 11 0
-104 -27 0
-11 27 104 0
48 -104 -105 0
-48 104 -105 0
48 104 105 0
-48 -104 105 0
103 105 -106 0
-103 -105 -106 0
103 -105 106 0
-103 105 106 0
-107 54 0
-107 -40 0
-54 40 107 0
108 87 0
108 17 0
-87 -17 -108 0
-109 -71 0
-109 -71 0
71 109 0
110 -108 0
110 -109 0
108 109 -110 0
107 -110 -111 0
-107 110 -111 0
107 110 111 0
-107 -110 111 0
92 14 -112 0
-92 -14 -112 0
92 -14 112 0
-92 14 112 0
-113 104 0
-113 112 0
-104 -112 113 0
-114 -111 0
-114 113 0
111 -113 114 0
106 -114 -115 0
-106 114 -115 0
106 114 115 0
-106 -114 115 0
116 -102 0
116 115 0
102 -115 -116 0
-100 -116 -117 0
100 116 -117 0
-100 116 117 0
100 -116 117 0
-118 91 0
-118 -117 0
-91 117 118 0
119 -85 0
119 -118 0
85 118 -119 0
-120 -77 0
-120 119 0
77 -119 120 0
121 -66 0
121 120 0
66 -120 -121 0
122 -3 0
122 -121 0
3 121 -122 0
67 46 -52 -64 -17 117 0
40 30 79 0
-11 64 0
122 -116 0
14 82 -53 -76 -96 -23 0
24 105 0
-63 -106 -9 0
-101 -73 41 -49 122 0
62 -18 -57 11 7 0
-72 -27 -35 -24 0
-43 -115 -72 0
-76 -47 -69 96 -73 120 0
-57 35 0
-19 -27 -45 97 0
-99 -79 -98 -30 -27 -60 0
60 106 0
13 23 96 -84 53 0
45 -108 12 0
-49 78 -108 34 0
118 -18 -73 17 -25 52 0
-20 -114 -31 0
-29 19 0
-31 93 115 30 90 0
-1 -111 76 0
-98 -44 -112 0
122 -50 0
-63 -70 -35 22 0
-36 -58 -11 -43 -49 -80 0
-102 87 114 -34 122 0
-84 46 7 -111 30 0
-103 59 -27 0
-34 50 115 22 112 0
106 -102 29 -69 112 -47 0
-86 -46 0
110 -56 -10 66 -7 0
-88 91 0
91 9 -117 113 -75 0
74 92 0
9 -68 82 -73 0
-49 28 101 0
44 76 -92 37 94 0
122 77 0
-56 122 111 99 -47 0
79 -117 -116 118 34 0
67 -6 21 7 -71 -74 0
39 26 -100 0
-74 65 18 84 -90 0
-45 -120 50 -32 -2 101 0
117 -43 34 0
-67 -35 59 74 0
-112 -51 -89 0
-24 -69 0
81 -59 74 15 0
-2 109 91 69 21 0
38 -37 -66 -41 0
-54 29 -111 -76 25 0
97 82 -26 47 0
89 -22 -17 56 38 -116 0
97 37 -5 0
-54 -25 0
-57 100 88 23 18 0
-57 121 99 17 0
76 -23 -11 -47 -20 0
-23 8 0
80 -91 53 0
25 -23 66 0
-89 -23 49 54 74 -41 0
-13 -88 -92 56 122 84 0
-31 -74 58 121 80 0
77 64 15 -100 -119 -102 0
122 0
